NAME: instance_73
TYPE: TSP
DIMENSION: 20
EDGE_WEIGHT_TYPE: EUC_2D
NODE_COORD_SECTION
0 61.05 66.23
1 61.77 80.58
2 79.64 40.44
3 98.47 67.84
4 37.74 46.16
5 81.41 14.37
6 69.77 88.19
7 25.50 93.91
8 51.82 26.08
9 96.00 53.79
10 31.32 82.31
11 65.75 68.29
12 60.96 51.36
13 96.01 99.84
14 91.68 73.97
15 62.31 95.95
16 10.33 92.05
17 17.13 62.96
18 98.22 69.94
19 43.66 11.76
EOF
